p cnf 50 25
29 14 -50 0
-24 -7 -26 0
-23 -47 -39 0
31 -8 -21 0
-36 12 41 0
-9 7 3 0
-36 46 -27 0
12 -18 -10 0
16 45 24 0
-16 -25 38 0
14 31 26 0
5 -21 11 0
-35 4 29 0
-15 29 -25 0
44 -37 -19 0
-50 7 -21 0
21 -22 -28 0
-9 -18 -19 0
45 26 40 0
16 -45 -8 0
36 -39 28 0
-10 24 -42 0
35 47 10 0
50 -24 23 0
2 -25 -40 0
